language ESSENCE' 1.0

letting n_courses be 184
letting n_periods be 24
letting prerequisite_RelationAsSet_Explicit_1 be
        [1, 1, 1, 1, 1, 2, 2, 2, 2, 3, 3, 3, 3, 3, 3, 3, 3, 3, 4, 4, 4, 4, 4, 4, 5, 5, 5, 5, 5, 5, 6, 6, 6, 7, 7, 7, 7,
         8, 8, 8, 8, 9, 10, 10, 10, 10, 10, 10, 10, 11, 11, 11, 11, 11, 11, 11, 13, 13, 13, 13, 13, 13, 14, 14, 14, 14,
         14, 14, 15, 15, 15, 15, 16, 16, 16, 17, 17, 17, 17, 17, 17, 17, 17, 17, 18, 18, 18, 18, 18, 19, 19, 19, 19, 20,
         20, 20, 21, 21, 21, 21, 21, 22, 22, 22, 22, 23, 23, 23, 23, 23, 23, 23, 24, 24, 24, 24, 24, 24, 24, 25, 25, 25,
         25, 25, 26, 26, 26, 26, 26, 26, 27, 27, 27, 28, 28, 28, 29, 29, 30, 30, 30, 30, 30, 30, 30, 31, 31, 31, 32, 32,
         32, 32, 33, 33, 33, 33, 33, 34, 34, 34, 34, 35, 35, 35, 35, 35, 35, 35, 36, 36, 36, 36, 36, 36, 36, 37, 37, 37,
         37, 37, 38, 38, 38, 38, 39, 39, 39, 39, 39, 39, 40, 41, 41, 42, 42, 43, 43, 44, 44, 45, 45, 45, 45, 45, 46, 47,
         48, 48, 49, 49, 49, 50, 50, 50, 52, 52, 52, 52, 53, 53, 53, 53, 54, 54, 54, 55, 55, 55, 56, 56, 57, 57, 57, 59,
         59, 60, 60, 61, 61, 61, 61, 62, 62, 63, 63, 64, 65, 67, 68, 69, 69, 71, 72, 72, 72, 73, 73, 73, 74, 74, 75, 75,
         75, 76, 77, 78, 79, 80, 80, 80, 81, 81, 81, 81, 81, 82, 82, 82, 82, 83, 83, 83, 84, 84, 84, 84, 85, 85, 85, 85,
         87, 88, 88, 88, 88, 89, 89, 90, 91, 91, 92, 92, 92, 92, 93, 93, 94, 95, 95, 95, 96, 96, 96, 96, 96, 96, 97, 99,
         99, 101, 101, 101, 102, 102, 102, 103, 104, 104, 104, 104, 105, 105, 107, 107, 107, 107, 108, 108, 109, 110,
         110, 110, 110, 110, 111, 111, 112, 113, 114, 114, 114, 115, 116, 117, 118;
             int(1..355)]
letting prerequisite_RelationAsSet_Explicit_2 be
        [46, 68, 74, 84, 92, 76, 83, 96, 98, 41, 42, 43, 50, 58, 59, 83, 101, 102, 58, 60, 76, 78, 86, 114, 56, 57, 61,
         66, 73, 78, 57, 63, 105, 57, 89, 90, 100, 55, 69, 78, 112, 98, 53, 61, 74, 84, 87, 106, 110, 42, 49, 58, 62,
         70, 107, 117, 44, 56, 67, 84, 88, 101, 41, 64, 80, 93, 107, 112, 40, 58, 108, 116, 40, 87, 95, 61, 64, 71, 75,
         79, 82, 86, 94, 98, 57, 59, 68, 74, 117, 73, 81, 82, 90, 65, 74, 105, 61, 74, 79, 95, 97, 40, 70, 72, 87, 55,
         64, 75, 86, 112, 116, 118, 46, 47, 54, 88, 91, 93, 107, 45, 51, 56, 60, 68, 49, 59, 60, 78, 85, 111, 42, 104,
         108, 67, 76, 89, 50, 114, 46, 67, 70, 103, 109, 115, 117, 89, 91, 99, 41, 67, 98, 100, 42, 47, 48, 60, 93, 54,
         77, 98, 113, 50, 56, 63, 93, 111, 113, 117, 45, 52, 63, 71, 99, 105, 106, 50, 55, 68, 77, 113, 49, 54, 78, 85,
         41, 52, 66, 73, 86, 88, 119, 128, 145, 158, 163, 175, 180, 130, 159, 155, 164, 170, 180, 182, 121, 136, 141,
         181, 144, 165, 183, 127, 149, 165, 132, 139, 166, 183, 158, 169, 177, 180, 121, 151, 167, 165, 168, 172, 134,
         150, 164, 167, 175, 152, 172, 148, 161, 122, 161, 174, 176, 148, 161, 138, 171, 127, 162, 174, 156, 159, 184,
         178, 141, 154, 170, 138, 172, 176, 134, 162, 129, 149, 160, 173, 140, 158, 166, 161, 164, 183, 139, 143, 153,
         164, 165, 137, 157, 161, 181, 135, 157, 173, 128, 135, 140, 155, 133, 161, 180, 184, 144, 150, 163, 178, 179,
         126, 142, 135, 143, 146, 123, 162, 172, 180, 125, 139, 130, 143, 152, 164, 129, 131, 140, 146, 152, 158, 133,
         136, 168, 143, 149, 176, 154, 171, 173, 122, 121, 165, 171, 173, 147, 157, 127, 137, 155, 178, 128, 151, 181,
         126, 171, 172, 173, 182, 135, 137, 121, 181, 124, 125, 132, 144, 120, 133, 146;
             int(1..355)]
letting course_load_Function1D be
        [3, 6, 5, 5, 6, 7, 2, 4, 5, 5, 3, 3, 7, 4, 3, 6, 7, 2, 7, 2, 5, 3, 6, 7, 5, 4, 5, 4, 6, 4, 3, 4, 5, 6, 4, 6, 4,
         3, 2, 4, 6, 3, 4, 4, 2, 4, 5, 2, 2, 2, 4, 5, 7, 6, 6, 7, 2, 7, 5, 5, 3, 5, 2, 4, 4, 4, 3, 3, 2, 2, 3, 3, 7, 3,
         6, 5, 6, 4, 4, 6, 6, 2, 4, 4, 5, 2, 2, 2, 3, 4, 5, 3, 3, 2, 6, 2, 3, 4, 4, 4, 3, 2, 5, 6, 5, 3, 5, 5, 6, 3, 6,
         6, 2, 2, 5, 5, 6, 4, 6, 4, 2, 4, 4, 6, 7, 5, 3, 3, 6, 3, 2, 3, 4, 6, 2, 5, 4, 5, 4, 2, 3, 3, 6, 2, 6, 6, 4, 2,
         3, 5, 4, 3, 5, 7, 5, 3, 7, 4, 4, 5, 5, 4, 4, 3, 3, 2, 2, 2, 4, 6, 7, 4, 5, 5, 3, 2, 2, 5, 7, 3, 7, 4, 6, 3;
             int(1..184)]
letting load_per_period_ub be 33
letting load_per_period_lb be 9
letting courses_per_period_ub be 8
letting courses_per_period_lb be 4
letting fin1 be 355
letting fin2 be 184
letting fin3 be 7
